(set-info :smt-lib-version 2.6)
(set-info :category "crafted")
(set-logic QF_FFA)
(define-sort FF0 () (_ FiniteField 52435875175126190479447740508185965837690552500527637822603658699938581184513))
(declare-fun return_n9_alt () FF0)
(declare-fun k_n3_alt () FF0)
(declare-fun l_n12_alt () FF0)
(declare-fun mul_n15_alt () FF0)
(declare-fun f_n2_alt () FF0)
(declare-fun j_n5_alt () FF0)
(declare-fun c_n8_alt () FF0)
(declare-fun g_n11_alt () FF0)
(declare-fun mul_n14_alt () FF0)
(declare-fun e_n4_alt () FF0)
(declare-fun mul_n13_alt () FF0)
(declare-fun b_n0_alt () FF0)
(declare-fun is_zero_inv_n16_alt () FF0)
(declare-fun d_n6_alt () FF0)
(declare-fun a_n1_alt () FF0)
(declare-fun i_n7_alt () FF0)
(declare-fun h_n10_alt () FF0)
(declare-fun return_n9 () FF0)
(declare-fun k_n3 () FF0)
(declare-fun l_n12 () FF0)
(declare-fun mul_n15 () FF0)
(declare-fun f_n2 () FF0)
(declare-fun j_n5 () FF0)
(declare-fun c_n8 () FF0)
(declare-fun g_n11 () FF0)
(declare-fun mul_n14 () FF0)
(declare-fun e_n4 () FF0)
(declare-fun mul_n13 () FF0)
(declare-fun b_n0 () FF0)
(declare-fun is_zero_inv_n16 () FF0)
(declare-fun d_n6 () FF0)
(declare-fun a_n1 () FF0)
(declare-fun i_n7 () FF0)
(declare-fun h_n10 () FF0)
(assert 
  (let ((let0 (as ff1 FF0)))
  (let ((let1 (as ff52435875175126190479447740508185965837690552500527637822603658699938581184512 FF0)))
  (let ((let2 return_n9_alt))
  (let ((let3 (ff.mul let2 let1)))
  (let ((let4 (ff.add let3 let0)))
  (let ((let5 (as ff6 FF0)))
  (let ((let6 k_n3_alt))
  (let ((let7 (ff.mul let6 let1)))
  (let ((let8 l_n12_alt))
  (let ((let9 (ff.mul let8 let1)))
  (let ((let10 mul_n15_alt))
  (let ((let11 (ff.mul let10 let1)))
  (let ((let12 f_n2_alt))
  (let ((let13 (ff.mul let12 let1)))
  (let ((let14 j_n5_alt))
  (let ((let15 (ff.mul let14 let1)))
  (let ((let16 c_n8_alt))
  (let ((let17 (ff.mul let16 let1)))
  (let ((let18 g_n11_alt))
  (let ((let19 (ff.mul let18 let1)))
  (let ((let20 mul_n14_alt))
  (let ((let21 (ff.mul let20 let1)))
  (let ((let22 e_n4_alt))
  (let ((let23 mul_n13_alt))
  (let ((let24 b_n0_alt))
  (let ((let25 (ff.add let24 let23 let22 let21 let19 let17 let15 let13 let11 let9 let7 let5)))
  (let ((let26 is_zero_inv_n16_alt))
  (let ((let27 (ff.mul let26 let25)))
  (let ((let28 (= let27 let4)))
  (let ((let29 (as ff2 FF0)))
  (let ((let30 (ff.mul let24 let29)))
  (let ((let31 (ff.mul let30 let22)))
  (let ((let32 (= let31 let10)))
  (let ((let33 d_n6_alt))
  (let ((let34 (ff.add let33 let7)))
  (let ((let35 a_n1_alt))
  (let ((let36 (ff.mul let35 let34)))
  (let ((let37 (= let36 let20)))
  (let ((let38 i_n7_alt))
  (let ((let39 (ff.mul let38 let1)))
  (let ((let40 (ff.add let39 let0)))
  (let ((let41 h_n10_alt))
  (let ((let42 (ff.mul let41 let40)))
  (let ((let43 (= let42 let23)))
  (let ((let44 (and let43 let37 let32 let28)))
  (let ((let45 return_n9))
  (let ((let46 (ff.mul let45 let1)))
  (let ((let47 (ff.add let46 let0)))
  (let ((let48 k_n3))
  (let ((let49 (ff.mul let48 let1)))
  (let ((let50 l_n12))
  (let ((let51 (ff.mul let50 let1)))
  (let ((let52 mul_n15))
  (let ((let53 (ff.mul let52 let1)))
  (let ((let54 f_n2))
  (let ((let55 (ff.mul let54 let1)))
  (let ((let56 j_n5))
  (let ((let57 (ff.mul let56 let1)))
  (let ((let58 c_n8))
  (let ((let59 (ff.mul let58 let1)))
  (let ((let60 g_n11))
  (let ((let61 (ff.mul let60 let1)))
  (let ((let62 mul_n14))
  (let ((let63 (ff.mul let62 let1)))
  (let ((let64 e_n4))
  (let ((let65 mul_n13))
  (let ((let66 b_n0))
  (let ((let67 (ff.add let66 let65 let64 let63 let61 let59 let57 let55 let53 let51 let49 let5)))
  (let ((let68 is_zero_inv_n16))
  (let ((let69 (ff.mul let68 let67)))
  (let ((let70 (= let69 let47)))
  (let ((let71 (ff.mul let66 let29)))
  (let ((let72 (ff.mul let71 let64)))
  (let ((let73 (= let72 let52)))
  (let ((let74 d_n6))
  (let ((let75 (ff.add let74 let49)))
  (let ((let76 a_n1))
  (let ((let77 (ff.mul let76 let75)))
  (let ((let78 (= let77 let62)))
  (let ((let79 i_n7))
  (let ((let80 (ff.mul let79 let1)))
  (let ((let81 (ff.add let80 let0)))
  (let ((let82 h_n10))
  (let ((let83 (ff.mul let82 let81)))
  (let ((let84 (= let83 let65)))
  (let ((let85 (and let84 let78 let73 let70)))
  (let ((let86 (= let45 let2)))
  (let ((let87 (not let86)))
  (let ((let88 (= let60 let18)))
  (let ((let89 (= let76 let35)))
  (let ((let90 (= let54 let12)))
  (let ((let91 (= let79 let38)))
  (let ((let92 (= let56 let14)))
  (let ((let93 (= let58 let16)))
  (let ((let94 (= let74 let33)))
  (let ((let95 (= let82 let41)))
  (let ((let96 (= let66 let24)))
  (let ((let97 (= let50 let8)))
  (let ((let98 (= let64 let22)))
  (let ((let99 (= let48 let6)))
  (let ((let100 (and let99 let98 let97 let96 let95 let94 let93 let92 let91 let90 let89 let88)))
  (let ((let101 (and let100 let87 let85 let44)))
  let101
))))))))))))))))))))))))))))))))))))))))))))))))))))))))))))))))))))))))))))))))))))))))))))))))))))))
)
(check-sat)
